% Generado automáticamente desde instancia_03_costos_extra_altos.pca.
% No editar manualmente: use el conversor PCA.

n = 24;
m = 6;
p = [6, 6, 0, 0, 6, 6];

escala_v = 100;
v = [0, 15, 40, 60, 85, 100];

escala_costo = 1;
ce = [1, 1, 12, 12, 1, 1];
ct = 30;

c = array2d(1..6, 1..6, [
    0, 1, 2, 4, 6, 8,
    1, 0, 1, 3, 5, 7,
    2, 1, 0, 1, 3, 5,
    5, 3, 1, 0, 1, 2,
    7, 5, 3, 1, 0, 1,
    9, 7, 5, 2, 1, 0
]);
